0 1820 
1 1818 
2 1810 
3 1806 
4 1804 
5 1794 
6 1790 
7 1782 
8 1770 
9 1766 
10 1758 
11 1742 
12 1738 
13 1732 
14 1722 
15 1718 
16 1706 
17 1698 
18 1694 
19 1686 
20 1686 
21 1686 
22 1684 
23 1684 
24 1684 
25 1684 
26 1684 
27 1684 
28 1684 
29 1684 
30 1684 
31 1684 
32 1676 
33 1676 

